RT is False
Default write of storage_offers_DA.csv just to have a file (but constraint should be inactive)
Reading model...
...model read.
creating competitive generators file...
...competitive generators recorded.
Loading data...
.. day-ahead data read.
Compiling instance...
...instance created.
Creating Offer Mitigation (model will solve as dispatch if TRUE)...
NOTE: storage offers will not be mitigated
...storage offer mitigation file created
Converting model to MPEC...
...converted
NOTE: initial MIP solve with only storage competitive to get feasible solution
Solving...

Welcome to IBM(R) ILOG(R) CPLEX(R) Interactive Optimizer 12.9.0.0
  with Simplex, Mixed Integer & Barrier Optimizers
5725-A06 5725-A29 5724-Y48 5724-Y49 5724-Y54 5724-Y55 5655-Y21
Copyright IBM Corp. 1988, 2019.  All Rights Reserved.

Type 'help' for a list of available commands.
Type 'help' followed by a command name for more
information on commands.

CPLEX> Logfile 'cplex.log' closed.
Logfile 'C:\Users\Luke\Desktop\test919\logs\tmp7yrs2gqw.cplex.log' open.
CPLEX> New value for parallel optimization mode: -1
CPLEX> New value for mixed integer optimality gap tolerance: 0.01
CPLEX> New value for integrality tolerance: 1e-09
CPLEX> New value for feasibility tolerance: 0.01
CPLEX> New value for deterministic time limit in ticks: 75000
CPLEX> Problem 'C:\Users\Luke\Desktop\test919\logs\tmp8nk9q98l.pyomo.lp' read.
Read time = 0.19 sec. (14.73 ticks)
CPLEX> Problem name         : C:\Users\Luke\Desktop\test919\logs\tmp8nk9q98l.pyomo.lp
Objective sense      : Maximize
Variables            :   53805  [Nneg: 1,  Box: 22000,  Free: 4464,
                                 Binary: 27340]
Objective nonzeros   :    9109
Linear constraints   :  123205  [Less: 41346,  Greater: 59096,  Equal: 22763]
  Nonzeros           :  291833
  RHS nonzeros       :   67571

Variables            : Min LB: -5000.000        Max UB: 1000000.       
Objective nonzeros   : Min   : 0.1000000        Max   : 2500.000       
Linear constraints   :
  Nonzeros           : Min   : 0.1000000        Max   : 1000000.       
  RHS nonzeros       : Min   : 0.1000000        Max   : 1000000.       
CPLEX> CPXPARAM_Parallel                                -1
CPXPARAM_Simplex_Tolerances_Feasibility          0.01
CPXPARAM_DetTimeLimit                            75000
CPXPARAM_MIP_Tolerances_MIPGap                   0.01
CPXPARAM_MIP_Tolerances_Integrality              1.0000000000000001e-09
Tried aggregator 3 times.
MIP Presolve eliminated 88296 rows and 18698 columns.
MIP Presolve added 3457 rows and 0 columns.
MIP Presolve modified 24962 coefficients.
Aggregator did 12966 substitutions.
Reduced MIP has 25400 rows, 21663 columns, and 72231 nonzeros.
Reduced MIP has 8563 binaries, 0 generals, 0 SOSs, and 0 indicators.
Presolve time = 0.23 sec. (174.10 ticks)
Probing fixed 397 vars, tightened 2912 bounds.
Probing time = 1.45 sec. (896.84 ticks)
Tried aggregator 2 times.
MIP Presolve eliminated 895 rows and 795 columns.
MIP Presolve modified 2293 coefficients.
Aggregator did 42 substitutions.
Reduced MIP has 24463 rows, 20826 columns, and 69515 nonzeros.
Reduced MIP has 8166 binaries, 0 generals, 0 SOSs, and 0 indicators.
Presolve time = 0.09 sec. (75.18 ticks)
Probing time = 0.03 sec. (16.68 ticks)
Clique table members: 6354.
MIP emphasis: balance optimality and feasibility.
MIP search method: dynamic search.
Parallel mode: opportunistic, using up to 24 threads.
Root relaxation solution time = 0.56 sec. (358.92 ticks)

        Nodes                                         Cuts/
   Node  Left     Objective  IInf  Best Integer    Best Bound    ItCnt     Gap

      0     0     4027.5682  2101                   4027.5682     8109         
      0     2     4027.5682     1                   4027.5682     8109         
Elapsed time = 10.03 sec. (5977.78 ticks, tree = 0.02 MB, solutions = 1)
*     2     2      integral     0     4027.5682     4027.5682     8109    0.00%

Root node processing (before b&c):
  Real time             =    9.73 sec. (5945.68 ticks)
Parallel b&c, 24 threads:
  Real time             =    0.41 sec. (98.61 ticks)
  Sync time (average)   =    0.08 sec.
  Wait time (average)   =    0.00 sec.
                          ------------
Total (root+branch&cut) =   10.14 sec. (6044.29 ticks)

Solution pool: 1 solution saved.

MIP - Integer optimal solution:  Objective =  4.0275682320e+03
Solution time =   10.14 sec.  Iterations = 8115  Nodes = 5
Deterministic time = 6044.45 ticks  (596.10 ticks/sec)

CPLEX> Incumbent solution written to file 'C:\Users\Luke\Desktop\test919\logs\tmpop4sxx3r.cplex.sol'.
CPLEX> NOTE: no warmstart specified for MIP iteration, default behavior is true
NOTE: resolving with all competitive generators using storage-only solution to warmstart
Solving...

Welcome to IBM(R) ILOG(R) CPLEX(R) Interactive Optimizer 12.9.0.0
  with Simplex, Mixed Integer & Barrier Optimizers
5725-A06 5725-A29 5724-Y48 5724-Y49 5724-Y54 5724-Y55 5655-Y21
Copyright IBM Corp. 1988, 2019.  All Rights Reserved.

Type 'help' for a list of available commands.
Type 'help' followed by a command name for more
information on commands.

CPLEX> Logfile 'cplex.log' closed.
Logfile 'C:\Users\Luke\Desktop\test919\logs\tmp2o77wbss.cplex.log' open.
CPLEX> New value for parallel optimization mode: -1
CPLEX> New value for mixed integer optimality gap tolerance: 0.01
CPLEX> New value for integrality tolerance: 1e-09
CPLEX> New value for feasibility tolerance: 0.01
CPLEX> New value for deterministic time limit in ticks: 75000
CPLEX> Problem 'C:\Users\Luke\Desktop\test919\logs\tmp5e1ezusu.pyomo.lp' read.
Read time = 0.20 sec. (14.75 ticks)
CPLEX> MIP start file 'C:\Users\Luke\Desktop\test919\logs\tmp9bohhr2q.cplex.mst' read.
CPLEX> Problem name         : C:\Users\Luke\Desktop\test919\logs\tmp5e1ezusu.pyomo.lp
Objective sense      : Maximize
Variables            :   54525  [Nneg: 1,  Box: 22720,  Free: 4464,
                                 Binary: 27340]
Objective nonzeros   :    9829
Linear constraints   :  123205  [Less: 41346,  Greater: 59096,  Equal: 22763]
  Nonzeros           :  291833
  RHS nonzeros       :   67571

Variables            : Min LB: -5000.000        Max UB: 1000000.       
Objective nonzeros   : Min   : 0.1000000        Max   : 2500.000       
Linear constraints   :
  Nonzeros           : Min   : 0.1000000        Max   : 1000000.       
  RHS nonzeros       : Min   : 0.1000000        Max   : 1000000.       
CPLEX> CPXPARAM_Parallel                                -1
CPXPARAM_Simplex_Tolerances_Feasibility          0.01
CPXPARAM_DetTimeLimit                            75000
CPXPARAM_MIP_Tolerances_MIPGap                   0.01
CPXPARAM_MIP_Tolerances_Integrality              1.0000000000000001e-09
Warning:  No solution found from 1 MIP starts.
Retaining values of one MIP start for possible repair.
Tried aggregator 3 times.
MIP Presolve eliminated 88296 rows and 19418 columns.
MIP Presolve added 3457 rows and 0 columns.
MIP Presolve modified 24962 coefficients.
Aggregator did 12966 substitutions.
Reduced MIP has 25400 rows, 21663 columns, and 72231 nonzeros.
Reduced MIP has 8563 binaries, 0 generals, 0 SOSs, and 0 indicators.
Presolve time = 0.23 sec. (174.46 ticks)
Probing fixed 397 vars, tightened 2912 bounds.
Probing time = 1.50 sec. (896.84 ticks)
Tried aggregator 2 times.
MIP Presolve eliminated 895 rows and 795 columns.
MIP Presolve modified 2293 coefficients.
Aggregator did 42 substitutions.
Reduced MIP has 24463 rows, 20826 columns, and 69515 nonzeros.
Reduced MIP has 8166 binaries, 0 generals, 0 SOSs, and 0 indicators.
Presolve time = 0.08 sec. (75.18 ticks)
Probing time = 0.03 sec. (16.68 ticks)
Clique table members: 6354.
MIP emphasis: balance optimality and feasibility.
MIP search method: dynamic search.
Parallel mode: opportunistic, using up to 24 threads.
Root relaxation solution time = 0.56 sec. (358.92 ticks)

        Nodes                                         Cuts/
   Node  Left     Objective  IInf  Best Integer    Best Bound    ItCnt     Gap

      0     0     4027.5682  2101                   4027.5682     8109         
Repair heuristic found nothing.
      0     2     4027.5682     1                   4027.5682     8109         
Elapsed time = 10.23 sec. (6126.78 ticks, tree = 0.02 MB, solutions = 1)
*     2     2      integral     0     4027.5682     4027.5682     8109    0.00%

Root node processing (before b&c):
  Real time             =    9.94 sec. (6094.70 ticks)
Parallel b&c, 24 threads:
  Real time             =    0.39 sec. (78.87 ticks)
  Sync time (average)   =    0.07 sec.
  Wait time (average)   =    0.00 sec.
                          ------------
Total (root+branch&cut) =   10.33 sec. (6173.57 ticks)

Solution pool: 1 solution saved.

MIP - Integer optimal solution:  Objective =  4.0275682320e+03
Solution time =   10.34 sec.  Iterations = 8115  Nodes = 5
Deterministic time = 6173.73 ticks  (596.84 ticks/sec)

CPLEX> Incumbent solution written to file 'C:\Users\Luke\Desktop\test919\logs\tmpu5c5icaj.cplex.sol'.
CPLEX> Exporting results... 
